(declare-fun bvlambda_28_ () (_ BitVec 1))
(declare-fun a131 () (Array (_ BitVec 1) (_ BitVec 15)))
(assert
(let (($e28 (_ bv0 14)))
(let (($e187 (concat $e28 false        )))
(let (($e188 (store a131 true        $e187)))
(let (($e190 (select $e188 (not   bvlambda_28_))))
                  (= (bvnot $e187)$e190)
                                                                                                                                                                                                                                                                                                                                                                                                                                                                                                                                                                                                                                                                                                                                                                                                                                                                                                                                                                                                                                                                                                                                                                                                                                                                                                                                                                                                                                                                                                                                                                                                                                                                                                                                                                                                                                                                                                                                                                                                                                                                                                                                                                                                                                                                                                                                                                                                                                                                                                                                                                                                                                                                                                                                                                                                                                                                                                                                                                                                                                                                                                                                                                                             ) ))                                                                                                        )                           )
